Welcome to the CBC MILP Solver 
Version: Trunk
Build Date: Apr 16 2020 

Starting solution of the Linear programming relaxation problem using Primal Simplex

Using Python-MIP package version 1.8.1
Machines:  4 Jobs:  4
Order: 
Job  0 : machine 0 ( 10 ) machine 3 ( 1 ) machine 2 ( 6 ) machine 1 ( 7 ) 
Job  1 : machine 0 ( 1 ) machine 3 ( 7 ) machine 1 ( 5 ) machine 2 ( 8 ) 
Job  2 : machine 3 ( 9 ) machine 2 ( 3 ) machine 1 ( 7 ) machine 0 ( 1 ) 
Job  3 : machine 1 ( 7 ) machine 3 ( 3 ) machine 0 ( 9 ) machine 2 ( 10 ) 
K:  44
Job  0 , e: machine  0 ( 0 ) machine  1 ( 17 ) machine  2 ( 11 ) machine  3 ( 10 ) 
Job  1 , e: machine  0 ( 0 ) machine  1 ( 8 ) machine  2 ( 13 ) machine  3 ( 1 ) 
Job  2 , e: machine  0 ( 19 ) machine  1 ( 12 ) machine  2 ( 9 ) machine  3 ( 0 ) 
Job  3 , e: machine  0 ( 10 ) machine  1 ( 0 ) machine  2 ( 19 ) machine  3 ( 7 ) 
Job  0 , f: machine  0 ( 14 ) machine  1 ( 0 ) machine  2 ( 7 ) machine  3 ( 13 ) 
Job  1 , f: machine  0 ( 20 ) machine  1 ( 8 ) machine  2 ( 0 ) machine  3 ( 13 ) 
Job  2 , f: machine  0 ( 0 ) machine  1 ( 1 ) machine  2 ( 8 ) machine  3 ( 11 ) 
Job  3 , f: machine  0 ( 10 ) machine  1 ( 22 ) machine  2 ( 0 ) machine  3 ( 19 ) 
EST and LST:
Job: 0 Machine: 0 EST: 0 LST: 20
Job: 0 Machine: 1 EST: 17 LST: 37
Job: 0 Machine: 2 EST: 11 LST: 31
Job: 0 Machine: 3 EST: 10 LST: 30
Job: 1 Machine: 0 EST: 0 LST: 23
Job: 1 Machine: 1 EST: 8 LST: 31
Job: 1 Machine: 2 EST: 13 LST: 36
Job: 1 Machine: 3 EST: 1 LST: 24
Job: 2 Machine: 0 EST: 19 LST: 43
Job: 2 Machine: 1 EST: 12 LST: 36
Job: 2 Machine: 2 EST: 9 LST: 33
Job: 2 Machine: 3 EST: 0 LST: 24
Job: 3 Machine: 0 EST: 10 LST: 25
Job: 3 Machine: 1 EST: 0 LST: 15
Job: 3 Machine: 2 EST: 19 LST: 34
Job: 3 Machine: 3 EST: 7 LST: 22
Order:
Job: 0 Machine: 0 = 0 
Job: 0 Machine: 1 = 3 
Job: 0 Machine: 2 = 2 
Job: 0 Machine: 3 = 1 
Job: 1 Machine: 0 = 0 
Job: 1 Machine: 1 = 2 
Job: 1 Machine: 2 = 3 
Job: 1 Machine: 3 = 1 
Job: 2 Machine: 0 = 3 
Job: 2 Machine: 1 = 2 
Job: 2 Machine: 2 = 1 
Job: 2 Machine: 3 = 0 
Job: 3 Machine: 0 = 2 
Job: 3 Machine: 1 = 0 
Job: 3 Machine: 2 = 3 
Job: 3 Machine: 3 = 1 
Distances:
Job 0, Machine 0 -> Machine 3: distance 10
Job 0, Machine 0 -> Machine 2: distance 11
Job 0, Machine 0 -> Machine 1: distance 17
Job 0, Machine 3 -> Machine 2: distance 1
Job 0, Machine 3 -> Machine 1: distance 7
Job 0, Machine 2 -> Machine 1: distance 6
Job 1, Machine 0 -> Machine 3: distance 1
Job 1, Machine 0 -> Machine 1: distance 8
Job 1, Machine 0 -> Machine 2: distance 13
Job 1, Machine 3 -> Machine 1: distance 7
Job 1, Machine 3 -> Machine 2: distance 12
Job 1, Machine 1 -> Machine 2: distance 5
Job 2, Machine 3 -> Machine 2: distance 9
Job 2, Machine 3 -> Machine 1: distance 12
Job 2, Machine 3 -> Machine 0: distance 19
Job 2, Machine 2 -> Machine 1: distance 3
Job 2, Machine 2 -> Machine 0: distance 10
Job 2, Machine 1 -> Machine 0: distance 7
Job 3, Machine 1 -> Machine 3: distance 7
Job 3, Machine 1 -> Machine 0: distance 10
Job 3, Machine 1 -> Machine 2: distance 19
Job 3, Machine 3 -> Machine 0: distance 3
Job 3, Machine 3 -> Machine 2: distance 12
Job 3, Machine 0 -> Machine 2: distance 9
McCormic linearization
{(0, 1), (0, 0), (2, 1), (2, 0), (1, 0), (1, 1)}
[(0, 1), (0, 0), (2, 1), (2, 0), (1, 0), (1, 1)]
obj:  0.6000000000000001
solutions:  1
+ x(0,0) + 0.1x(1,0) 
C:  28.999999999999996
x(0,0) = 0.20	 x(0,1) = 19.00	 x(0,2) = 13.00	 x(0,3) = 10.20	 
x(1,0) = 8.00	 x(1,1) = 16.00	 x(1,2) = 21.00	 x(1,3) = 9.00	 
x(2,0) = 20.20	 x(2,1) = 13.20	 x(2,2) = 10.20	 x(2,3) = 1.20	 
x(3,0) = 10.00	 x(3,1) = 0.00	 x(3,2) = 19.00	 x(3,3) = 7.00	 
y(0,1,0) = 0.37	 y(1,0,0) = 0.63	 
y(0,2,0) = 0.48	 y(2,0,0) = 0.52	 
y(0,3,0) = 0.99	 y(3,0,0) = 0.01	 
y(1,2,0) = 0.30	 y(2,1,0) = 0.70	 
y(1,3,0) = 0.96	 y(3,1,0) = 0.04	 
y(2,3,0) = 0.00	 y(3,2,0) = 1.00	 
y(0,1,1) = 0.48	 y(1,0,1) = 0.52	 
y(0,2,1) = 0.05	 y(2,0,1) = 0.95	 
y(0,3,1) = 0.00	 y(3,0,1) = 1.00	 
y(1,2,1) = 0.12	 y(2,1,1) = 0.88	 
y(1,3,1) = 0.38	 y(3,1,1) = 0.62	 
y(2,3,1) = 0.00	 y(3,2,1) = 1.00	 
y(0,1,2) = 0.48	 y(1,0,2) = 0.52	 
y(0,2,2) = 0.44	 y(2,0,2) = 0.56	 
y(0,3,2) = 1.00	 y(3,0,2) = 0.00	 
y(1,2,2) = 0.00	 y(2,1,2) = 1.00	 
y(1,3,2) = 0.26	 y(3,1,2) = 0.74	 
y(2,3,2) = 0.74	 y(3,2,2) = 0.26	 
y(0,1,3) = 0.28	 y(1,0,3) = 0.72	 
y(0,2,3) = 0.00	 y(2,0,3) = 1.00	 
y(0,3,3) = 0.01	 y(3,0,3) = 0.99	 
y(1,2,3) = 0.04	 y(2,1,3) = 0.96	 
y(1,3,3) = 0.04	 y(3,1,3) = 0.96	 
y(2,3,3) = 0.35	 y(3,2,3) = 0.65	 
{(1, 2), (0, 1), (3, 2), (1, 3), (3, 3), (0, 2), (2, 1), (2, 3), (0, 3), (1, 1)}
obj:  0.789900575614861
solutions:  1
+ 0.006122448979591833x(1,3) + 0.10010465724751434x(3,3) + 0.014599686028257494x(2,3) + 0.001622187336473054x(0,3) 
[(1, 2), (0, 1), (3, 2), (1, 3), (3, 3), (0, 2), (2, 1), (2, 3), (0, 3), (1, 1)]
cliques:  1 mip: 72
C:  30.417270929465545
x(0,0) = 1.00	 x(0,1) = 23.42	 x(0,2) = 17.42	 x(0,3) = 16.42	 
x(1,0) = -0.00	 x(1,1) = 8.00	 x(1,2) = 13.00	 x(1,3) = 1.00	 
x(2,0) = 29.42	 x(2,1) = 22.42	 x(2,2) = 19.42	 x(2,3) = 10.42	 
x(3,0) = 11.14	 x(3,1) = 0.00	 x(3,2) = 20.14	 x(3,3) = 8.14	 
y(0,1,0) = 0.00	 y(1,0,0) = 1.00	 
y(0,2,0) = 0.67	 y(2,0,0) = 0.33	 
y(0,3,0) = 0.99	 y(3,0,0) = 0.01	 
y(1,2,0) = 0.69	 y(2,1,0) = 0.31	 
y(1,3,0) = 0.59	 y(3,1,0) = 0.41	 
y(2,3,0) = 0.00	 y(3,2,0) = 1.00	 
y(0,1,1) = 0.11	 y(1,0,1) = 0.89	 
y(0,2,1) = 0.23	 y(2,0,1) = 0.77	 
y(0,3,1) = 0.00	 y(3,0,1) = 1.00	 
y(1,2,1) = 0.61	 y(2,1,1) = 0.39	 
y(1,3,1) = 0.04	 y(3,1,1) = 0.96	 
y(2,3,1) = 0.00	 y(3,2,1) = 1.00	 
y(0,1,2) = 0.11	 y(1,0,2) = 0.89	 
y(0,2,2) = 0.38	 y(2,0,2) = 0.62	 
y(0,3,2) = 0.73	 y(3,0,2) = 0.27	 
y(1,2,2) = 0.41	 y(2,1,2) = 0.59	 
y(1,3,2) = 0.97	 y(3,1,2) = 0.03	 
y(2,3,2) = 0.87	 y(3,2,2) = 0.13	 
y(0,1,3) = 0.00	 y(1,0,3) = 1.00	 
y(0,2,3) = 0.43	 y(2,0,3) = 0.57	 
y(0,3,3) = 0.26	 y(3,0,3) = 0.74	 
y(1,2,3) = 0.58	 y(2,1,3) = 0.42	 
y(1,3,3) = 0.99	 y(3,1,3) = 0.01	 
y(2,3,3) = 0.03	 y(3,2,3) = 0.97	 
{(0, 3), (0, 0), (2, 3), (3, 3)}
obj:  1.1262216617465932
erro
[(0, 3), (0, 0), (2, 3), (3, 3)]
cliques:  0 mip: 115
C:  31.225464319230646
x(0,0) = 1.00	 x(0,1) = 24.23	 x(0,2) = 12.00	 x(0,3) = 11.00	 
x(1,0) = -0.00	 x(1,1) = 8.00	 x(1,2) = 13.00	 x(1,3) = 1.00	 
x(2,0) = 30.23	 x(2,1) = 15.86	 x(2,2) = 12.86	 x(2,3) = 3.86	 
x(3,0) = 12.19	 x(3,1) = 1.00	 x(3,2) = 21.23	 x(3,3) = 9.19	 
y(0,1,0) = 0.00	 y(1,0,0) = 1.00	 
y(0,2,0) = 1.00	 y(2,0,0) = 0.00	 
y(0,3,0) = 0.98	 y(3,0,0) = 0.02	 
y(1,2,0) = 1.00	 y(2,1,0) = 0.00	 
y(1,3,0) = 1.00	 y(3,1,0) = 0.00	 
y(2,3,0) = 0.00	 y(3,2,0) = 1.00	 
y(0,1,1) = 0.00	 y(1,0,1) = 1.00	 
y(0,2,1) = 0.08	 y(2,0,1) = 0.92	 
y(0,3,1) = 0.00	 y(3,0,1) = 1.00	 
y(1,2,1) = 0.88	 y(2,1,1) = 0.12	 
y(1,3,1) = 0.00	 y(3,1,1) = 1.00	 
y(2,3,1) = 0.00	 y(3,2,1) = 1.00	 
y(0,1,2) = 0.79	 y(1,0,2) = 0.21	 
y(0,2,2) = 0.15	 y(2,0,2) = 0.85	 
y(0,3,2) = 1.00	 y(3,0,2) = 0.00	 
y(1,2,2) = 0.29	 y(2,1,2) = 0.71	 
y(1,3,2) = 1.00	 y(3,1,2) = 0.00	 
y(2,3,2) = 1.00	 y(3,2,2) = 0.00	 
y(0,1,3) = 0.00	 y(1,0,3) = 1.00	 
y(0,2,3) = 0.08	 y(2,0,3) = 0.92	 
y(0,3,3) = 0.08	 y(3,0,3) = 0.92	 
y(1,2,3) = 0.64	 y(2,1,3) = 0.36	 
y(1,3,3) = 0.98	 y(3,1,3) = 0.02	 
y(2,3,3) = 0.86	 y(3,2,3) = 0.14	 
{(1, 3), (3, 3), (2, 3), (1, 0), (0, 3)}
obj:  0.539615142333945
solutions:  1
+ 0.1111111111111111x(1,3) + 0.11111111111111112x(2,3) 
[(1, 3), (3, 3), (2, 3), (1, 0), (0, 3)]
cliques:  1 mip: 92
C:  32.0
x(0,0) = 0.73	 x(0,1) = 25.00	 x(0,2) = 14.04	 x(0,3) = 10.73	 
x(1,0) = 2.73	 x(1,1) = 11.89	 x(1,2) = 16.89	 x(1,3) = 3.73	 
x(2,0) = 28.97	 x(2,1) = 21.97	 x(2,2) = 18.97	 x(2,3) = 9.97	 
x(3,0) = 11.64	 x(3,1) = 1.64	 x(3,2) = 20.64	 x(3,3) = 8.64	 
y(0,1,0) = 0.12	 y(1,0,0) = 0.88	 
y(0,2,0) = 0.94	 y(2,0,0) = 0.06	 
y(0,3,0) = 0.98	 y(3,0,0) = 0.02	 
y(1,2,0) = 0.87	 y(2,1,0) = 0.13	 
y(1,3,0) = 1.00	 y(3,1,0) = 0.00	 
y(2,3,0) = 0.00	 y(3,2,0) = 1.00	 
y(0,1,1) = 0.00	 y(1,0,1) = 1.00	 
y(0,2,1) = 0.66	 y(2,0,1) = 0.34	 
y(0,3,1) = 0.00	 y(3,0,1) = 1.00	 
y(1,2,1) = 0.78	 y(2,1,1) = 0.22	 
y(1,3,1) = -0.00	 y(3,1,1) = 1.00	 
y(2,3,1) = 0.00	 y(3,2,1) = 1.00	 
y(0,1,2) = 0.86	 y(1,0,2) = 0.14	 
y(0,2,2) = 0.32	 y(2,0,2) = 0.68	 
y(0,3,2) = 1.00	 y(3,0,2) = 0.00	 
y(1,2,2) = 0.50	 y(2,1,2) = 0.50	 
y(1,3,2) = 0.83	 y(3,1,2) = 0.17	 
y(2,3,2) = 0.92	 y(3,2,2) = 0.08	 
y(0,1,3) = 0.00	 y(1,0,3) = 1.00	 
y(0,2,3) = 0.42	 y(2,0,3) = 0.58	 
y(0,3,3) = 0.06	 y(3,0,3) = 0.94	 
y(1,2,3) = 0.79	 y(2,1,3) = 0.21	 
y(1,3,3) = 0.91	 y(3,1,3) = 0.09	 
y(2,3,3) = 0.12	 y(3,2,3) = 0.88	 
{(1, 2), (0, 1), (3, 2), (1, 3), (0, 2), (2, 1), (2, 3), (2, 2), (0, 3), (1, 1)}
obj:  0.8701305829194952
solutions:  1
+ 0.014411446806320451x(1,2) + 0.02264655926707499x(3,2) + 0.002007308662308919x(1,3) + 0.010808585104740333x(0,2) 
[(1, 2), (0, 1), (3, 2), (1, 3), (0, 2), (2, 1), (2, 3), (2, 2), (0, 3), (1, 1)]
cliques:  1 mip: 94
C:  33.1714029274671
x(0,0) = 0.22	 x(0,1) = 26.17	 x(0,2) = 20.17	 x(0,3) = 13.79	 
x(1,0) = 7.76	 x(1,1) = 15.76	 x(1,2) = 20.76	 x(1,3) = 8.76	 
x(2,0) = 30.33	 x(2,1) = 23.33	 x(2,2) = 18.59	 x(2,3) = 9.59	 
x(3,0) = 11.54	 x(3,1) = 1.54	 x(3,2) = 20.54	 x(3,3) = 8.54	 
y(0,1,0) = 0.45	 y(1,0,0) = 0.55	 
y(0,2,0) = 0.94	 y(2,0,0) = 0.06	 
y(0,3,0) = 0.97	 y(3,0,0) = 0.03	 
y(1,2,0) = 0.75	 y(2,1,0) = 0.25	 
y(1,3,0) = 1.00	 y(3,1,0) = 0.00	 
y(2,3,0) = 0.00	 y(3,2,0) = 1.00	 
y(0,1,1) = 0.00	 y(1,0,1) = 1.00	 
y(0,2,1) = 0.69	 y(2,0,1) = 0.31	 
y(0,3,1) = 0.00	 y(3,0,1) = 1.00	 
y(1,2,1) = 0.65	 y(2,1,1) = 0.35	 
y(1,3,1) = 0.00	 y(3,1,1) = 1.00	 
y(2,3,1) = 0.00	 y(3,2,1) = 1.00	 
y(0,1,2) = 0.77	 y(1,0,2) = 0.23	 
y(0,2,2) = 0.20	 y(2,0,2) = 0.80	 
y(0,3,2) = 0.69	 y(3,0,2) = 0.31	 
y(1,2,2) = 0.04	 y(2,1,2) = 0.96	 
y(1,3,2) = 0.67	 y(3,1,2) = 0.33	 
y(2,3,2) = 0.94	 y(3,2,2) = 0.06	 
y(0,1,3) = 0.17	 y(1,0,3) = 0.83	 
y(0,2,3) = 0.26	 y(2,0,3) = 0.74	 
y(0,3,3) = 0.00	 y(3,0,3) = 1.00	 
y(1,2,3) = 0.51	 y(2,1,3) = 0.49	 
y(1,3,3) = 0.70	 y(3,1,3) = 0.30	 
y(2,3,3) = 0.08	 y(3,2,3) = 0.92	 
{(1, 3), (0, 0), (3, 3), (2, 3), (1, 0), (0, 3)}
obj:  0.9850593256013006
solutions:  1
+ 0.05882352941176472x(1,3) + 0.6196700902583255x(0,0) + 0.014939309056956125x(3,3) + 0.009129577757028738x(2,3) + 0.008403361344537803x(0,3) 
[(1, 3), (0, 0), (3, 3), (2, 3), (1, 0), (0, 3)]
cliques:  1 mip: 137
C:  34.0
x(0,0) = 0.36	 x(0,1) = 27.00	 x(0,2) = 18.92	 x(0,3) = 11.13	 
x(1,0) = 7.34	 x(1,1) = 15.34	 x(1,2) = 20.34	 x(1,3) = 8.34	 
x(2,0) = 28.59	 x(2,1) = 20.00	 x(2,2) = 17.00	 x(2,3) = 8.00	 
x(3,0) = 11.13	 x(3,1) = 1.13	 x(3,2) = 21.45	 x(3,3) = 8.13	 
y(0,1,0) = 0.33	 y(1,0,0) = 0.67	 
y(0,2,0) = 0.86	 y(2,0,0) = 0.14	 
y(0,3,0) = 0.95	 y(3,0,0) = 0.05	 
y(1,2,0) = 0.69	 y(2,1,0) = 0.31	 
y(1,3,0) = 1.00	 y(3,1,0) = 0.00	 
y(2,3,0) = 0.00	 y(3,2,0) = 1.00	 
y(0,1,1) = 0.00	 y(1,0,1) = 1.00	 
y(0,2,1) = 0.00	 y(2,0,1) = 1.00	 
y(0,3,1) = 0.00	 y(3,0,1) = 1.00	 
y(1,2,1) = 0.49	 y(2,1,1) = 0.51	 
y(1,3,1) = 0.00	 y(3,1,1) = 1.00	 
y(2,3,1) = 0.00	 y(3,2,1) = 1.00	 
y(0,1,2) = 0.52	 y(1,0,2) = 0.48	 
y(0,2,2) = 0.14	 y(2,0,2) = 0.86	 
y(0,3,2) = 0.55	 y(3,0,2) = 0.45	 
y(1,2,2) = 0.13	 y(2,1,2) = 0.87	 
y(1,3,2) = 0.72	 y(3,1,2) = 0.28	 
y(2,3,2) = 1.00	 y(3,2,2) = 0.00	 
y(0,1,3) = 0.30	 y(1,0,3) = 0.70	 
y(0,2,3) = 0.51	 y(2,0,3) = 0.49	 
y(0,3,3) = 0.00	 y(3,0,3) = 1.00	 
y(1,2,3) = 0.40	 y(2,1,3) = 0.60	 
y(1,3,3) = 0.70	 y(3,1,3) = 0.30	 
y(2,3,3) = 0.13	 y(3,2,3) = 0.87	 
{(1, 2), (3, 2), (1, 3), (0, 2), (2, 1), (2, 3), (2, 2), (0, 3), (1, 1)}
obj:  0.9959078423179976
solutions:  1
+ 0.014147323633324469x(1,2) + 0.022231508566652736x(3,2) + 0.002074231660525026x(1,3) + 0.009573376894730834x(0,2) + 0.002963188086464332x(0,3) 
[(1, 2), (3, 2), (1, 3), (0, 2), (2, 1), (2, 3), (2, 2), (0, 3), (1, 1)]
cliques:  1 mip: 97
C:  34.0
x(0,0) = 0.06	 x(0,1) = 22.39	 x(0,2) = 16.39	 x(0,3) = 13.55	 
x(1,0) = 9.83	 x(1,1) = 18.06	 x(1,2) = 23.06	 x(1,3) = 11.06	 
x(2,0) = 29.55	 x(2,1) = 20.68	 x(2,2) = 17.68	 x(2,3) = 8.68	 
x(3,0) = 10.83	 x(3,1) = 0.83	 x(3,2) = 20.68	 x(3,3) = 7.83	 
y(0,1,0) = 0.60	 y(1,0,0) = 0.40	 
y(0,2,0) = 0.89	 y(2,0,0) = 0.11	 
y(0,3,0) = 0.96	 y(3,0,0) = 0.04	 
y(1,2,0) = 0.65	 y(2,1,0) = 0.35	 
y(1,3,0) = 1.00	 y(3,1,0) = 0.00	 
y(2,3,0) = 0.00	 y(3,2,0) = 1.00	 
y(0,1,1) = 0.24	 y(1,0,1) = 0.76	 
y(0,2,1) = 0.58	 y(2,0,1) = 0.42	 
y(0,3,1) = 0.00	 y(3,0,1) = 1.00	 
y(1,2,1) = 0.42	 y(2,1,1) = 0.58	 
y(1,3,1) = 0.00	 y(3,1,1) = 1.00	 
y(2,3,1) = 0.00	 y(3,2,1) = 1.00	 
y(0,1,2) = 0.72	 y(1,0,2) = 0.28	 
y(0,2,2) = 0.83	 y(2,0,2) = 0.17	 
y(0,3,2) = 0.70	 y(3,0,2) = 0.30	 
y(1,2,2) = 0.00	 y(2,1,2) = 1.00	 
y(1,3,2) = 0.58	 y(3,1,2) = 0.42	 
y(2,3,2) = 1.00	 y(3,2,2) = 0.00	 
y(0,1,3) = 0.26	 y(1,0,3) = 0.74	 
y(0,2,3) = 0.28	 y(2,0,3) = 0.72	 
y(0,3,3) = 0.00	 y(3,0,3) = 1.00	 
y(1,2,3) = 0.33	 y(2,1,3) = 0.67	 
y(1,3,3) = 0.57	 y(3,1,3) = 0.43	 
y(2,3,3) = 0.09	 y(3,2,3) = 0.91	 
{(0, 1), (1, 3), (0, 0), (3, 3), (3, 1), (2, 1), (2, 3), (1, 0), (1, 1), (0, 3)}
obj:  0.9785379787819127
solutions:  1
+ 0.00921052631578947x(1,3) + 0.06578947368421083x(0,0) + 0.0960526315789474x(3,3) + 0.011842105263157916x(2,3) + 0.001315789473684164x(0,3) 
[(0, 1), (1, 3), (0, 0), (3, 3), (3, 1), (2, 1), (2, 3), (1, 0), (1, 1), (0, 3)]
cliques:  1 mip: 96
C:  34.0
x(0,0) = 0.14	 x(0,1) = 25.54	 x(0,2) = 19.54	 x(0,3) = 10.14	 
x(1,0) = 9.70	 x(1,1) = 18.08	 x(1,2) = 23.66	 x(1,3) = 11.08	 
x(2,0) = 24.83	 x(2,1) = 17.83	 x(2,2) = 14.83	 x(2,3) = 5.83	 
x(3,0) = 11.40	 x(3,1) = 1.40	 x(3,2) = 20.40	 x(3,3) = 8.40	 
y(0,1,0) = 0.58	 y(1,0,0) = 0.42	 
y(0,2,0) = 0.87	 y(2,0,0) = 0.13	 
y(0,3,0) = 0.95	 y(3,0,0) = 0.05	 
y(1,2,0) = 0.56	 y(2,1,0) = 0.44	 
y(1,3,0) = 1.00	 y(3,1,0) = 0.00	 
y(2,3,0) = 0.00	 y(3,2,0) = 1.00	 
y(0,1,1) = 0.10	 y(1,0,1) = 0.90	 
y(0,2,1) = 0.18	 y(2,0,1) = 0.82	 
y(0,3,1) = 0.00	 y(3,0,1) = 1.00	 
y(1,2,1) = 0.30	 y(2,1,1) = 0.70	 
y(1,3,1) = 0.00	 y(3,1,1) = 1.00	 
y(2,3,1) = 0.00	 y(3,2,1) = 1.00	 
y(0,1,2) = 0.82	 y(1,0,2) = 0.18	 
y(0,2,2) = 0.19	 y(2,0,2) = 0.81	 
y(0,3,2) = 0.33	 y(3,0,2) = 0.67	 
y(1,2,2) = 0.00	 y(2,1,2) = 1.00	 
y(1,3,2) = 0.55	 y(3,1,2) = 0.45	 
y(2,3,2) = 0.64	 y(3,2,2) = 0.36	 
y(0,1,3) = 0.42	 y(1,0,3) = 0.58	 
y(0,2,3) = 0.32	 y(2,0,3) = 0.68	 
y(0,3,3) = 0.13	 y(3,0,3) = 0.87	 
y(1,2,3) = 0.60	 y(2,1,3) = 0.40	 
y(1,3,3) = 0.60	 y(3,1,3) = 0.40	 
y(2,3,3) = 0.37	 y(3,2,3) = 0.63	 
{(1, 2), (3, 2), (0, 0), (3, 0), (0, 2), (2, 1), (1, 0), (1, 1)}
obj:  1.0322386623340674
erro
[(1, 2), (3, 2), (0, 0), (3, 0), (0, 2), (2, 1), (1, 0), (1, 1)]
cliques:  0 mip: 108
C:  34.0
x(0,0) = 0.09	 x(0,1) = 27.00	 x(0,2) = 17.61	 x(0,3) = 12.34	 
x(1,0) = 9.12	 x(1,1) = 18.00	 x(1,2) = 23.00	 x(1,3) = 11.00	 
x(2,0) = 32.41	 x(2,1) = 20.00	 x(2,2) = 17.00	 x(2,3) = 8.00	 
x(3,0) = 11.14	 x(3,1) = 1.14	 x(3,2) = 20.14	 x(3,3) = 8.14	 
y(0,1,0) = 0.51	 y(1,0,0) = 0.49	 
y(0,2,0) = 0.98	 y(2,0,0) = 0.02	 
y(0,3,0) = 0.93	 y(3,0,0) = 0.07	 
y(1,2,0) = 0.77	 y(2,1,0) = 0.23	 
y(1,3,0) = 0.45	 y(3,1,0) = 0.55	 
y(2,3,0) = 0.00	 y(3,2,0) = 1.00	 
y(0,1,1) = 0.17	 y(1,0,1) = 0.83	 
y(0,2,1) = -0.00	 y(2,0,1) = 1.00	 
y(0,3,1) = 0.00	 y(3,0,1) = 1.00	 
y(1,2,1) = 0.42	 y(2,1,1) = 0.58	 
y(1,3,1) = 0.00	 y(3,1,1) = 1.00	 
y(2,3,1) = 0.00	 y(3,2,1) = 1.00	 
y(0,1,2) = 0.71	 y(1,0,2) = 0.29	 
y(0,2,2) = 0.10	 y(2,0,2) = 0.90	 
y(0,3,2) = 0.57	 y(3,0,2) = 0.43	 
y(1,2,2) = 0.60	 y(2,1,2) = 0.40	 
y(1,3,2) = 0.52	 y(3,1,2) = 0.48	 
y(2,3,2) = 0.44	 y(3,2,2) = 0.56	 
y(0,1,3) = 0.92	 y(1,0,3) = 0.08	 
y(0,2,3) = 0.83	 y(2,0,3) = 0.17	 
y(0,3,3) = 0.00	 y(3,0,3) = 1.00	 
y(1,2,3) = 0.68	 y(2,1,3) = 0.32	 
y(1,3,3) = 0.59	 y(3,1,3) = 0.41	 
y(2,3,3) = 0.13	 y(3,2,3) = 0.87	 
{(1, 0), (0, 0)}
obj:  0.9999999999999999
erro
[(1, 0), (0, 0)]
cliques:  0 mip: 86
C:  33.99999999999999
x(0,0) = 1.64	 x(0,1) = 26.54	 x(0,2) = 20.23	 x(0,3) = 11.64	 
x(1,0) = 4.88	 x(1,1) = 12.88	 x(1,2) = 17.88	 x(1,3) = 5.88	 
x(2,0) = 31.02	 x(2,1) = 19.20	 x(2,2) = 16.20	 x(2,3) = 3.12	 
x(3,0) = 13.79	 x(3,1) = 1.99	 x(3,2) = 22.79	 x(3,3) = 8.99	 
y(0,1,0) = 0.77	 y(1,0,0) = 0.23	 
y(0,2,0) = 0.90	 y(2,0,0) = 0.10	 
y(0,3,0) = 0.86	 y(3,0,0) = 0.14	 
y(1,2,0) = 0.82	 y(2,1,0) = 0.18	 
y(1,3,0) = 0.73	 y(3,1,0) = 0.27	 
y(2,3,0) = 0.00	 y(3,2,0) = 1.00	 
y(0,1,1) = 0.36	 y(1,0,1) = 0.64	 
y(0,2,1) = 0.00	 y(2,0,1) = 1.00	 
y(0,3,1) = 0.00	 y(3,0,1) = 1.00	 
y(1,2,1) = 0.55	 y(2,1,1) = 0.45	 
y(1,3,1) = 0.00	 y(3,1,1) = 1.00	 
y(2,3,1) = 0.00	 y(3,2,1) = 1.00	 
y(0,1,2) = 0.38	 y(1,0,2) = 0.62	 
y(0,2,2) = 0.05	 y(2,0,2) = 0.95	 
y(0,3,2) = 0.52	 y(3,0,2) = 0.48	 
y(1,2,2) = 0.72	 y(2,1,2) = 0.28	 
y(1,3,2) = 0.88	 y(3,1,2) = 0.12	 
y(2,3,2) = 0.53	 y(3,2,2) = 0.47	 
y(0,1,3) = 0.77	 y(1,0,3) = 0.23	 
y(0,2,3) = 0.69	 y(2,0,3) = 0.31	 
y(0,3,3) = 0.58	 y(3,0,3) = 0.42	 
y(1,2,3) = 0.69	 y(2,1,3) = 0.31	 
y(1,3,3) = 0.84	 y(3,1,3) = 0.16	 
y(2,3,3) = 0.35	 y(3,2,3) = 0.65	 
{(1, 2), (3, 2), (1, 3), (0, 0), (3, 3), (3, 0), (2, 3), (0, 3), (0, 2)}
obj:  0.7894958061554718
solutions:  1
+ 0.05384615384615385x(1,3) + 0.023076923076923075x(3,3) + 0.05641025641025641x(2,3) + 0.007692307692307695x(0,3) 
[(1, 2), (3, 2), (1, 3), (0, 0), (3, 3), (3, 0), (2, 3), (0, 3), (0, 2)]
cliques:  1 mip: 109
C:  34.0
x(0,0) = 1.79	 x(0,1) = 27.00	 x(0,2) = 18.88	 x(0,3) = 11.79	 
x(1,0) = 7.52	 x(1,1) = 15.52	 x(1,2) = 20.52	 x(1,3) = 8.52	 
x(2,0) = 32.10	 x(2,1) = 20.00	 x(2,2) = 14.43	 x(2,3) = 4.46	 
x(3,0) = 12.70	 x(3,1) = 1.63	 x(3,2) = 21.70	 x(3,3) = 8.63	 
y(0,1,0) = 0.86	 y(1,0,0) = 0.14	 
y(0,2,0) = 0.92	 y(2,0,0) = 0.08	 
y(0,3,0) = 0.94	 y(3,0,0) = 0.06	 
y(1,2,0) = 0.79	 y(2,1,0) = 0.21	 
y(1,3,0) = 0.59	 y(3,1,0) = 0.41	 
y(2,3,0) = 0.00	 y(3,2,0) = 1.00	 
y(0,1,1) = 0.49	 y(1,0,1) = 0.51	 
y(0,2,1) = -0.00	 y(2,0,1) = 1.00	 
y(0,3,1) = 0.00	 y(3,0,1) = 1.00	 
y(1,2,1) = 0.48	 y(2,1,1) = 0.52	 
y(1,3,1) = -0.00	 y(3,1,1) = 1.00	 
y(2,3,1) = 0.00	 y(3,2,1) = 1.00	 
y(0,1,2) = 0.53	 y(1,0,2) = 0.47	 
y(0,2,2) = 0.18	 y(2,0,2) = 0.82	 
y(0,3,2) = 0.55	 y(3,0,2) = 0.45	 
y(1,2,2) = 0.60	 y(2,1,2) = 0.40	 
y(1,3,2) = 0.73	 y(3,1,2) = 0.27	 
y(2,3,2) = 0.55	 y(3,2,2) = 0.45	 
y(0,1,3) = 0.86	 y(1,0,3) = 0.14	 
y(0,2,3) = 0.73	 y(2,0,3) = 0.27	 
y(0,3,3) = 0.83	 y(3,0,3) = 0.17	 
y(1,2,3) = 0.64	 y(2,1,3) = 0.36	 
y(1,3,3) = 0.71	 y(3,1,3) = 0.29	 
y(2,3,3) = 0.29	 y(3,2,3) = 0.71	 
{(0, 1), (1, 2), (3, 2), (1, 3), (3, 3), (1, 1), (2, 3), (0, 3), (0, 2)}
obj:  0.9999192382612522
solutions:  1
+ 0.022580645161290294x(1,3) + 0.0741935483870968x(3,3) + 0.029032258064516116x(2,3) + 0.0032258064516129037x(0,3) 
[(0, 1), (1, 2), (3, 2), (1, 3), (3, 3), (1, 1), (2, 3), (0, 3), (0, 2)]
cliques:  1 mip: 0
C:  34.0
x(0,0) = 1.79	 x(0,1) = 27.00	 x(0,2) = 18.88	 x(0,3) = 11.79	 
x(1,0) = 7.52	 x(1,1) = 15.52	 x(1,2) = 20.52	 x(1,3) = 8.52	 
x(2,0) = 32.10	 x(2,1) = 20.00	 x(2,2) = 14.42	 x(2,3) = 4.46	 
x(3,0) = 12.70	 x(3,1) = 1.63	 x(3,2) = 21.70	 x(3,3) = 8.63	 
y(0,1,0) = 0.86	 y(1,0,0) = 0.14	 
y(0,2,0) = 0.92	 y(2,0,0) = 0.08	 
y(0,3,0) = 0.94	 y(3,0,0) = 0.06	 
y(1,2,0) = 0.79	 y(2,1,0) = 0.21	 
y(1,3,0) = 0.59	 y(3,1,0) = 0.41	 
y(2,3,0) = 0.00	 y(3,2,0) = 1.00	 
y(0,1,1) = 0.49	 y(1,0,1) = 0.51	 
y(0,2,1) = -0.00	 y(2,0,1) = 1.00	 
y(0,3,1) = 0.00	 y(3,0,1) = 1.00	 
y(1,2,1) = 0.48	 y(2,1,1) = 0.52	 
y(1,3,1) = 0.00	 y(3,1,1) = 1.00	 
y(2,3,1) = 0.00	 y(3,2,1) = 1.00	 
y(0,1,2) = 0.53	 y(1,0,2) = 0.47	 
y(0,2,2) = 0.18	 y(2,0,2) = 0.82	 
y(0,3,2) = 0.55	 y(3,0,2) = 0.45	 
y(1,2,2) = 0.60	 y(2,1,2) = 0.40	 
y(1,3,2) = 0.73	 y(3,1,2) = 0.27	 
y(2,3,2) = 0.55	 y(3,2,2) = 0.45	 
y(0,1,3) = 0.86	 y(1,0,3) = 0.14	 
y(0,2,3) = 0.73	 y(2,0,3) = 0.27	 
y(0,3,3) = 0.83	 y(3,0,3) = 0.17	 
y(1,2,3) = 0.64	 y(2,1,3) = 0.36	 
y(1,3,3) = 0.71	 y(3,1,3) = 0.29	 
y(2,3,3) = 0.29	 y(3,2,3) = 0.71	 
{(0, 1), (1, 2), (3, 2), (1, 3), (3, 3), (1, 1), (2, 3), (0, 3), (0, 2)}
obj:  1.0
erro
[(0, 1), (1, 2), (3, 2), (1, 3), (3, 3), (1, 1), (2, 3), (0, 3), (0, 2)]
cliques:  0 mip: 0
iterações: 12 cortes cliques encontrados: 9 mip: 1034 objective:  34.0
Coin0506I Presolve 157 (-171) rows, 90 (-71) columns and 490 (-260) elements
Clp1000I sum of infeasibilities 1.79124e-08 - average 1.14092e-10, 0 fixed columns
Coin0506I Presolve 157 (0) rows, 90 (0) columns and 490 (0) elements
Clp0029I End of values pass after 90 iterations
Clp0000I Optimal - objective value 29
Clp0000I Optimal - objective value 29
Coin0511I After Postsolve, objective 29, infeasibilities - dual 0 (0), primal 0 (0)
Clp0000I Optimal - objective value 29
Clp0000I Optimal - objective value 29
Clp0000I Optimal - objective value 29
Coin0511I After Postsolve, objective 29, infeasibilities - dual 0 (0), primal 0 (0)
Clp0032I Optimal objective 29 - 0 iterations time 0.012, Presolve 0.00, Idiot 0.01
Coin3009W Conflict graph built in 0.000 seconds, density: 0.070%
